c Random generated cnf formula, satisfiable: true
p cnf 10 50
2 7 5 0
-3 8 10 0
7 -10 -4 0
8 -5 1 0
-10 -3 1 0
-7 3 2 0
4 -10 9 0
3 -4 7 0
-3 -8 -1 0
-1 -5 10 0
-5 1 8 0
1 3 -5 0
2 6 -9 0
-2 4 -3 0
2 -8 3 0
-4 2 9 0
-3 2 -10 0
4 -8 -5 0
-9 5 -3 0
-9 2 8 0
-10 -4 2 0
3 1 -8 0
-5 3 9 0
-3 10 4 0
-9 7 10 0
-10 -8 2 0
-6 1 9 0
9 -10 1 0
-1 -8 -5 0
-1 -2 8 0
-8 -2 9 0
-7 -6 5 0
-1 4 -8 0
9 -7 -4 0
-1 -3 8 0
-1 10 -2 0
4 6 -7 0
8 -3 1 0
9 4 -5 0
-10 7 -9 0
-7 -10 -9 0
-4 3 10 0
-2 -4 -1 0
2 3 8 0
10 6 -2 0
-8 10 2 0
3 6 -5 0
6 -1 -8 0
8 -1 10 0
4 5 6 0
